data/solutions/recovery/wellformed/moderate/flexible/wellformed_moderate_instance89/22.sol
Elapsed time: 0.02
Upper bound: 7703.0
Planning weighted value: 588661.0
C[0]=7703.0
C[1]=7508.0
C[2]=7460.0
C[3]=7061.0
C[4]=6905.0
C[5]=6726.0
y[0]=4
y[1]=3
y[2]=2
y[3]=4
y[4]=0
y[5]=1
y[6]=4
y[7]=5
y[8]=2
y[9]=2
y[10]=0
y[11]=0
y[12]=0
y[13]=3
y[14]=1
y[15]=5
y[16]=0
y[17]=2
y[18]=1
y[19]=3
y[20]=4
y[21]=3
y[22]=0
y[23]=5
y[24]=5
y[25]=2
y[26]=5
y[27]=0
y[28]=3
y[29]=4
y[30]=0
y[31]=5
y[32]=3
y[33]=2
y[34]=4
y[35]=2
y[36]=2
y[37]=3
y[38]=4
y[39]=3
y[40]=1
y[41]=1
